RAW/CMTY/fspd-long/CMT6Y.vrp_seed-2.out
555.4302365	0.094	326.902
