RAW/CMTY/fspd-mid/CMT6Y.vrp_seed-2.sol
Route #1: 18 4 47 46
Route #2: 17 42 19 40 41 13 25 14
Route #3: 12 37 44 15 45 33 39 10 49 5
Route #4: 32 11 16 29 21 50 34 30 9 38
Route #5: 27 48 8 26 7 43 24 23 6
Route #6: 1 22 31 28 3 36 35 20 2
Cost 555.430236